<?xml version = "1.0" encoding="UTF-8" standalone="yes"?>
<CPLEXSolution version="1.2">
 <header
   problemName="IloCplex"
   solutionName="p0"
   solutionIndex="-1"
   objectiveValue="263751738"
   solutionTypeValue="3"
   solutionTypeString="primal"
   solutionStatusValue="127"
   solutionStatusString="integer feasible solution"
   solutionMethodString="mip"
   primalFeasible="0"
   dualFeasible="0"
   writeLevel="4"/>
 <quality
   epInt="1.0000000000000001e-05"
   epRHS="9.9999999999999995e-07"
   maxIntInfeas="0"
   maxPrimalInfeas="0"
   maxX="1"
   maxSlack="1"/>
 <variables>
  <variable index="61" value="1"/>
  <variable index="76" value="1"/>
  <variable index="136" value="1"/>
  <variable index="229" value="1"/>
  <variable index="230" value="1"/>
  <variable index="234" value="1"/>
  <variable index="241" value="1"/>
  <variable index="422" value="1"/>
  <variable index="1242" value="1"/>
  <variable index="1466" value="1"/>
  <variable index="2603" value="1"/>
  <variable index="2770" value="1"/>
  <variable index="3347" value="1"/>
  <variable index="3960" value="1"/>
  <variable index="4757" value="1"/>
  <variable index="5071" value="1"/>
  <variable index="5742" value="1"/>
  <variable index="6329" value="1"/>
  <variable index="6910" value="1"/>
  <variable index="8033" value="1"/>
  <variable index="8478" value="1"/>
  <variable index="8862" value="1"/>
  <variable index="9344" value="1"/>
  <variable index="10099" value="1"/>
  <variable index="10643" value="1"/>
  <variable index="11289" value="1"/>
  <variable index="12090" value="1"/>
  <variable index="12376" value="1"/>
  <variable index="12918" value="1"/>
  <variable index="13673" value="1"/>
  <variable index="14499" value="1"/>
  <variable index="15167" value="1"/>
  <variable index="15258" value="1"/>
  <variable index="16436" value="1"/>
  <variable index="16891" value="1"/>
  <variable index="17121" value="1"/>
  <variable index="18125" value="1"/>
  <variable index="18760" value="1"/>
  <variable index="19428" value="1"/>
  <variable index="19658" value="1"/>
  <variable index="20565" value="1"/>
  <variable index="21245" value="1"/>
  <variable index="21671" value="1"/>
  <variable index="22218" value="1"/>
  <variable index="22939" value="1"/>
  <variable index="23437" value="1"/>
  <variable index="23743" value="1"/>
  <variable index="24491" value="1"/>
  <variable index="25021" value="1"/>
  <variable index="25831" value="1"/>
  <variable index="26074" value="1"/>
  <variable index="26665" value="1"/>
  <variable index="27791" value="1"/>
  <variable index="28039" value="1"/>
  <variable index="28974" value="1"/>
  <variable index="29586" value="1"/>
  <variable index="29872" value="1"/>
  <variable index="30434" value="1"/>
  <variable index="31298" value="1"/>
  <variable index="31600" value="1"/>
  <variable index="32445" value="1"/>
  <variable index="33181" value="1"/>
  <variable index="33821" value="1"/>
  <variable index="34264" value="1"/>
  <variable index="34459" value="1"/>
  <variable index="35324" value="1"/>
  <variable index="36009" value="1"/>
  <variable index="36780" value="1"/>
  <variable index="37328" value="1"/>
  <variable index="37679" value="1"/>
  <variable index="38556" value="1"/>
  <variable index="38728" value="1"/>
  <variable index="39278" value="1"/>
  <variable index="40265" value="1"/>
  <variable index="40948" value="1"/>
  <variable index="41077" value="1"/>
  <variable index="42030" value="1"/>
  <variable index="42358" value="1"/>
  <variable index="42941" value="1"/>
  <variable index="43838" value="1"/>
  <variable index="44310" value="1"/>
  <variable index="45137" value="1"/>
  <variable index="45392" value="1"/>
  <variable index="46447" value="1"/>
  <variable index="46551" value="1"/>
  <variable index="47224" value="1"/>
  <variable index="48082" value="1"/>
  <variable index="48340" value="1"/>
  <variable index="49063" value="1"/>
  <variable index="49721" value="1"/>
  <variable index="50230" value="1"/>
  <variable index="51063" value="1"/>
  <variable index="51387" value="1"/>
  <variable index="51904" value="1"/>
  <variable index="52946" value="1"/>
  <variable index="53125" value="1"/>
  <variable index="53860" value="1"/>
  <variable index="54410" value="1"/>
  <variable index="55347" value="1"/>
  <variable index="55730" value="1"/>
  <variable index="56250" value="1"/>
  <variable index="56977" value="1"/>
  <variable index="57482" value="1"/>
  <variable index="58143" value="1"/>
  <variable index="58707" value="1"/>
  <variable index="59632" value="1"/>
  <variable index="59756" value="1"/>
  <variable index="60676" value="1"/>
  <variable index="61303" value="1"/>
  <variable index="61548" value="1"/>
  <variable index="62304" value="1"/>
  <variable index="63107" value="1"/>
  <variable index="63757" value="1"/>
  <variable index="64158" value="1"/>
  <variable index="64745" value="1"/>
  <variable index="65371" value="1"/>
  <variable index="65962" value="1"/>
  <variable index="66461" value="1"/>
  <variable index="67210" value="1"/>
  <variable index="67457" value="1"/>
  <variable index="68506" value="1"/>
  <variable index="68895" value="1"/>
  <variable index="69806" value="1"/>
  <variable index="70186" value="1"/>
  <variable index="70869" value="1"/>
  <variable index="71215" value="1"/>
  <variable index="71778" value="1"/>
  <variable index="72506" value="1"/>
  <variable index="72949" value="1"/>
  <variable index="73824" value="1"/>
  <variable index="74417" value="1"/>
  <variable index="74845" value="1"/>
  <variable index="75505" value="1"/>
  <variable index="76203" value="1"/>
  <variable index="76659" value="1"/>
  <variable index="77552" value="1"/>
  <variable index="77796" value="1"/>
  <variable index="78740" value="1"/>
  <variable index="79424" value="1"/>
  <variable index="79954" value="1"/>
  <variable index="80415" value="1"/>
  <variable index="81213" value="1"/>
  <variable index="81718" value="1"/>
  <variable index="82098" value="1"/>
  <variable index="82501" value="1"/>
  <variable index="83209" value="1"/>
  <variable index="84081" value="1"/>
  <variable index="84758" value="1"/>
  <variable index="85419" value="1"/>
  <variable index="85627" value="1"/>
  <variable index="86450" value="1"/>
  <variable index="87241" value="1"/>
  <variable index="87313" value="1"/>
  <variable index="88418" value="1"/>
  <variable index="88841" value="1"/>
  <variable index="89335" value="1"/>
  <variable index="89660" value="1"/>
  <variable index="90528" value="1"/>
  <variable index="91323" value="1"/>
  <variable index="91795" value="1"/>
  <variable index="92522" value="1"/>
  <variable index="92763" value="1"/>
  <variable index="93646" value="1"/>
  <variable index="94187" value="1"/>
  <variable index="94962" value="1"/>
  <variable index="95159" value="1"/>
  <variable index="95900" value="1"/>
  <variable index="96298" value="1"/>
  <variable index="96903" value="1"/>
  <variable index="97990" value="1"/>
  <variable index="98644" value="1"/>
  <variable index="98737" value="1"/>
  <variable index="99785" value="1"/>
  <variable index="100155" value="1"/>
  <variable index="100487" value="1"/>
  <variable index="101195" value="1"/>
  <variable index="101914" value="1"/>
  <variable index="102435" value="1"/>
  <variable index="102967" value="1"/>
  <variable index="103774" value="1"/>
  <variable index="104389" value="1"/>
  <variable index="105053" value="1"/>
  <variable index="105661" value="1"/>
  <variable index="106048" value="1"/>
  <variable index="106913" value="1"/>
  <variable index="107538" value="1"/>
  <variable index="108025" value="1"/>
  <variable index="108516" value="1"/>
  <variable index="108934" value="1"/>
  <variable index="109987" value="1"/>
  <variable index="110648" value="1"/>
  <variable index="111058" value="1"/>
  <variable index="111436" value="1"/>
  <variable index="112096" value="1"/>
  <variable index="112936" value="1"/>
  <variable index="113238" value="1"/>
  <variable index="113909" value="1"/>
  <variable index="114502" value="1"/>
  <variable index="115080" value="1"/>
  <variable index="116004" value="1"/>
  <variable index="116530" value="1"/>
  <variable index="117114" value="1"/>
  <variable index="117294" value="1"/>
  <variable index="118443" value="1"/>
  <variable index="118482" value="1"/>
  <variable index="119361" value="1"/>
  <variable index="119735" value="1"/>
  <variable index="120743" value="1"/>
  <variable index="121026" value="1"/>
  <variable index="121993" value="1"/>
  <variable index="122072" value="1"/>
  <variable index="122733" value="1"/>
  <variable index="123519" value="1"/>
  <variable index="124327" value="1"/>
  <variable index="124995" value="1"/>
  <variable index="125100" value="1"/>
  <variable index="125874" value="1"/>
  <variable index="126372" value="1"/>
  <variable index="127167" value="1"/>
  <variable index="127561" value="1"/>
  <variable index="128084" value="1"/>
  <variable index="128771" value="1"/>
  <variable index="129288" value="1"/>
  <variable index="129869" value="1"/>
  <variable index="130628" value="1"/>
  <variable index="131401" value="1"/>
  <variable index="131982" value="1"/>
  <variable index="132629" value="1"/>
  <variable index="133378" value="1"/>
  <variable index="133832" value="1"/>
  <variable index="134549" value="1"/>
  <variable index="134857" value="1"/>
  <variable index="135656" value="1"/>
  <variable index="136449" value="1"/>
  <variable index="136717" value="1"/>
  <variable index="137203" value="1"/>
  <variable index="137662" value="1"/>
  <variable index="138539" value="1"/>
  <variable index="139053" value="1"/>
  <variable index="139822" value="1"/>
  <variable index="140231" value="1"/>
  <variable index="140870" value="1"/>
  <variable index="141750" value="1"/>
  <variable index="142136" value="1"/>
  <variable index="142847" value="1"/>
  <variable index="143180" value="1"/>
  <variable index="144112" value="1"/>
  <variable index="144279" value="1"/>
  <variable index="145416" value="1"/>
  <variable index="145490" value="1"/>
  <variable index="146571" value="1"/>
  <variable index="147225" value="1"/>
  <variable index="147486" value="1"/>
  <variable index="148394" value="1"/>
  <variable index="148741" value="1"/>
  <variable index="149511" value="1"/>
  <variable index="149923" value="1"/>
  <variable index="150705" value="1"/>
  <variable index="151041" value="1"/>
  <variable index="151794" value="1"/>
  <variable index="152315" value="1"/>
  <variable index="152933" value="1"/>
  <variable index="153451" value="1"/>
  <variable index="153993" value="1"/>
  <variable index="154577" value="1"/>
  <variable index="155338" value="1"/>
  <variable index="156062" value="1"/>
  <variable index="156583" value="1"/>
  <variable index="157140" value="1"/>
  <variable index="158010" value="1"/>
  <variable index="158194" value="1"/>
  <variable index="159199" value="1"/>
  <variable index="159255" value="1"/>
  <variable index="160191" value="1"/>
  <variable index="160496" value="1"/>
  <variable index="161393" value="1"/>
  <variable index="162089" value="1"/>
  <variable index="162613" value="1"/>
  <variable index="163092" value="1"/>
  <variable index="164027" value="1"/>
  <variable index="164496" value="1"/>
  <variable index="165238" value="1"/>
  <variable index="165769" value="1"/>
  <variable index="166244" value="1"/>
  <variable index="167046" value="1"/>
  <variable index="167080" value="1"/>
  <variable index="168083" value="1"/>
  <variable index="168783" value="1"/>
  <variable index="169260" value="1"/>
  <variable index="169867" value="1"/>
  <variable index="170614" value="1"/>
  <variable index="170819" value="1"/>
  <variable index="171782" value="1"/>
  <variable index="172226" value="1"/>
  <variable index="172581" value="1"/>
  <variable index="173399" value="1"/>
  <variable index="173881" value="1"/>
  <variable index="174354" value="1"/>
  <variable index="175056" value="1"/>
  <variable index="175873" value="1"/>
  <variable index="176212" value="1"/>
  <variable index="177141" value="1"/>
  <variable index="177484" value="1"/>
  <variable index="178373" value="1"/>
  <variable index="178655" value="1"/>
  <variable index="179073" value="1"/>
  <variable index="180200" value="1"/>
  <variable index="180345" value="1"/>
  <variable index="181434" value="1"/>
  <variable index="181676" value="1"/>
  <variable index="182475" value="1"/>
  <variable index="182901" value="1"/>
  <variable index="183674" value="1"/>
  <variable index="184234" value="1"/>
  <variable index="184527" value="1"/>
  <variable index="185544" value="1"/>
  <variable index="186175" value="1"/>
  <variable index="186464" value="1"/>
  <variable index="187345" value="1"/>
  <variable index="187489" value="1"/>
  <variable index="188334" value="1"/>
  <variable index="189133" value="1"/>
  <variable index="189808" value="1"/>
  <variable index="190178" value="1"/>
  <variable index="190565" value="1"/>
  <variable index="191287" value="1"/>
  <variable index="192088" value="1"/>
  <variable index="192717" value="1"/>
  <variable index="193309" value="1"/>
  <variable index="193654" value="1"/>
  <variable index="194428" value="1"/>
  <variable index="194757" value="1"/>
  <variable index="195670" value="1"/>
  <variable index="196396" value="1"/>
  <variable index="196823" value="1"/>
  <variable index="197561" value="1"/>
  <variable index="197806" value="1"/>
  <variable index="198297" value="1"/>
  <variable index="199300" value="1"/>
  <variable index="199523" value="1"/>
  <variable index="200086" value="1"/>
  <variable index="201155" value="1"/>
  <variable index="201324" value="1"/>
  <variable index="202384" value="1"/>
  <variable index="202569" value="1"/>
  <variable index="203332" value="1"/>
  <variable index="203992" value="1"/>
  <variable index="204281" value="1"/>
  <variable index="205319" value="1"/>
  <variable index="205773" value="1"/>
  <variable index="206563" value="1"/>
  <variable index="207101" value="1"/>
  <variable index="207306" value="1"/>
  <variable index="208146" value="1"/>
  <variable index="208972" value="1"/>
  <variable index="209381" value="1"/>
  <variable index="210254" value="1"/>
  <variable index="210598" value="1"/>
  <variable index="211131" value="1"/>
  <variable index="211697" value="1"/>
  <variable index="212223" value="1"/>
  <variable index="212970" value="1"/>
  <variable index="213563" value="1"/>
  <variable index="214439" value="1"/>
  <variable index="214515" value="1"/>
  <variable index="215252" value="1"/>
  <variable index="216059" value="1"/>
  <variable index="216275" value="1"/>
  <variable index="217243" value="1"/>
  <variable index="217790" value="1"/>
  <variable index="218076" value="1"/>
  <variable index="218922" value="1"/>
  <variable index="219302" value="1"/>
  <variable index="220280" value="1"/>
  <variable index="220677" value="1"/>
  <variable index="221325" value="1"/>
  <variable index="221726" value="1"/>
  <variable index="222840" value="1"/>
  <variable index="223249" value="1"/>
  <variable index="223495" value="1"/>
  <variable index="224204" value="1"/>
  <variable index="224808" value="1"/>
  <variable index="225651" value="1"/>
  <variable index="226452" value="1"/>
  <variable index="227023" value="1"/>
  <variable index="227553" value="1"/>
  <variable index="227668" value="1"/>
  <variable index="228362" value="1"/>
  <variable index="228975" value="1"/>
  <variable index="229868" value="1"/>
  <variable index="230182" value="1"/>
  <variable index="231008" value="1"/>
  <variable index="231432" value="1"/>
  <variable index="232377" value="1"/>
  <variable index="232516" value="1"/>
  <variable index="233487" value="1"/>
  <variable index="233750" value="1"/>
  <variable index="234379" value="1"/>
  <variable index="235239" value="1"/>
  <variable index="235997" value="1"/>
  <variable index="236622" value="1"/>
  <variable index="237085" value="1"/>
  <variable index="237770" value="1"/>
  <variable index="238046" value="1"/>
  <variable index="238726" value="1"/>
  <variable index="239535" value="1"/>
  <variable index="240229" value="1"/>
  <variable index="240619" value="1"/>
  <variable index="240946" value="1"/>
  <variable index="241855" value="1"/>
  <variable index="242247" value="1"/>
  <variable index="242766" value="1"/>
  <variable index="243308" value="1"/>
  <variable index="243909" value="1"/>
  <variable index="245031" value="1"/>
  <variable index="245153" value="1"/>
  <variable index="245692" value="1"/>
  <variable index="246606" value="1"/>
  <variable index="247320" value="1"/>
  <variable index="248051" value="1"/>
  <variable index="248139" value="1"/>
  <variable index="248811" value="1"/>
  <variable index="249672" value="1"/>
  <variable index="249998" value="1"/>
  <variable index="250720" value="1"/>
  <variable index="251267" value="1"/>
  <variable index="252115" value="1"/>
  <variable index="252483" value="1"/>
  <variable index="252883" value="1"/>
  <variable index="253797" value="1"/>
  <variable index="254588" value="1"/>
  <variable index="255151" value="1"/>
  <variable index="255697" value="1"/>
  <variable index="256207" value="1"/>
  <variable index="256713" value="1"/>
  <variable index="257626" value="1"/>
  <variable index="258066" value="1"/>
  <variable index="258633" value="1"/>
  <variable index="259236" value="1"/>
  <variable index="260030" value="1"/>
  <variable index="260440" value="1"/>
  <variable index="260664" value="1"/>
  <variable index="261789" value="1"/>
  <variable index="262090" value="1"/>
  <variable index="263017" value="1"/>
  <variable index="263353" value="1"/>
  <variable index="264198" value="1"/>
  <variable index="264405" value="1"/>
  <variable index="265014" value="1"/>
  <variable index="265456" value="1"/>
  <variable index="266372" value="1"/>
  <variable index="267250" value="1"/>
  <variable index="267569" value="1"/>
  <variable index="268176" value="1"/>
  <variable index="268491" value="1"/>
  <variable index="269085" value="1"/>
  <variable index="270110" value="1"/>
  <variable index="270652" value="1"/>
  <variable index="271321" value="1"/>
  <variable index="271511" value="1"/>
  <variable index="272216" value="1"/>
  <variable index="272783" value="1"/>
  <variable index="273537" value="1"/>
  <variable index="274442" value="1"/>
  <variable index="274666" value="1"/>
  <variable index="275486" value="1"/>
  <variable index="275878" value="1"/>
  <variable index="276648" value="1"/>
  <variable index="277129" value="1"/>
  <variable index="277493" value="1"/>
  <variable index="278414" value="1"/>
  <variable index="278829" value="1"/>
  <variable index="279596" value="1"/>
  <variable index="280409" value="1"/>
  <variable index="280591" value="1"/>
  <variable index="281454" value="1"/>
  <variable index="281979" value="1"/>
  <variable index="282485" value="1"/>
  <variable index="282999" value="1"/>
  <variable index="283964" value="1"/>
  <variable index="284502" value="1"/>
  <variable index="284964" value="1"/>
  <variable index="285384" value="1"/>
  <variable index="285907" value="1"/>
  <variable index="286816" value="1"/>
  <variable index="287356" value="1"/>
  <variable index="287789" value="1"/>
  <variable index="288449" value="1"/>
  <variable index="289304" value="1"/>
  <variable index="290002" value="1"/>
  <variable index="290293" value="1"/>
  <variable index="290842" value="1"/>
  <variable index="291544" value="1"/>
  <variable index="292166" value="1"/>
  <variable index="292675" value="1"/>
  <variable index="293201" value="1"/>
  <variable index="293712" value="1"/>
  <variable index="294437" value="1"/>
  <variable index="295412" value="1"/>
  <variable index="295754" value="1"/>
  <variable index="296265" value="1"/>
  <variable index="296705" value="1"/>
  <variable index="297420" value="1"/>
  <variable index="298437" value="1"/>
  <variable index="298711" value="1"/>
  <variable index="299303" value="1"/>
  <variable index="299927" value="1"/>
  <variable index="300580" value="1"/>
  <variable index="300899" value="1"/>
  <variable index="301536" value="1"/>
  <variable index="302359" value="1"/>
  <variable index="302918" value="1"/>
  <variable index="303820" value="1"/>
  <variable index="304212" value="1"/>
  <variable index="304877" value="1"/>
  <variable index="305342" value="1"/>
  <variable index="305965" value="1"/>
  <variable index="306575" value="1"/>
  <variable index="306861" value="1"/>
  <variable index="307668" value="1"/>
  <variable index="308067" value="1"/>
  <variable index="309207" value="1"/>
  <variable index="309390" value="1"/>
  <variable index="310211" value="1"/>
  <variable index="310804" value="1"/>
  <variable index="311360" value="1"/>
  <variable index="312002" value="1"/>
  <variable index="312425" value="1"/>
  <variable index="313147" value="1"/>
  <variable index="313835" value="1"/>
  <variable index="314420" value="1"/>
  <variable index="314912" value="1"/>
  <variable index="315732" value="1"/>
  <variable index="316294" value="1"/>
  <variable index="316926" value="1"/>
  <variable index="317308" value="1"/>
  <variable index="317844" value="1"/>
  <variable index="318319" value="1"/>
  <variable index="319149" value="1"/>
  <variable index="319470" value="1"/>
  <variable index="320579" value="1"/>
  <variable index="321253" value="1"/>
  <variable index="321397" value="1"/>
  <variable index="322150" value="1"/>
  <variable index="322976" value="1"/>
  <variable index="323601" value="1"/>
  <variable index="324211" value="1"/>
  <variable index="324471" value="1"/>
  <variable index="325151" value="1"/>
  <variable index="325785" value="1"/>
  <variable index="326288" value="1"/>
  <variable index="326802" value="1"/>
  <variable index="327708" value="1"/>
  <variable index="328040" value="1"/>
  <variable index="328522" value="1"/>
  <variable index="329207" value="1"/>
  <variable index="329984" value="1"/>
  <variable index="330835" value="1"/>
  <variable index="331392" value="1"/>
  <variable index="331821" value="1"/>
  <variable index="332114" value="1"/>
  <variable index="332968" value="1"/>
  <variable index="333413" value="1"/>
  <variable index="334334" value="1"/>
  <variable index="334633" value="1"/>
  <variable index="335120" value="1"/>
  <variable index="335869" value="1"/>
  <variable index="336729" value="1"/>
  <variable index="337227" value="1"/>
  <variable index="337555" value="1"/>
  <variable index="338294" value="1"/>
  <variable index="339093" value="1"/>
  <variable index="339317" value="1"/>
  <variable index="340405" value="1"/>
  <variable index="340892" value="1"/>
  <variable index="341186" value="1"/>
  <variable index="341663" value="1"/>
  <variable index="342716" value="1"/>
  <variable index="343342" value="1"/>
  <variable index="343568" value="1"/>
  <variable index="344405" value="1"/>
  <variable index="345084" value="1"/>
  <variable index="345548" value="1"/>
  <variable index="345931" value="1"/>
  <variable index="346532" value="1"/>
  <variable index="347218" value="1"/>
  <variable index="347738" value="1"/>
  <variable index="348724" value="1"/>
  <variable index="348930" value="1"/>
  <variable index="349752" value="1"/>
  <variable index="350568" value="1"/>
  <variable index="350817" value="1"/>
  <variable index="351600" value="1"/>
  <variable index="351952" value="1"/>
  <variable index="352895" value="1"/>
  <variable index="353479" value="1"/>
  <variable index="353788" value="1"/>
  <variable index="354374" value="1"/>
  <variable index="355188" value="1"/>
  <variable index="356015" value="1"/>
  <variable index="356531" value="1"/>
  <variable index="357159" value="1"/>
  <variable index="357766" value="1"/>
  <variable index="357964" value="1"/>
  <variable index="358857" value="1"/>
  <variable index="359185" value="1"/>
  <variable index="359773" value="1"/>
 </variables>
</CPLEXSolution>
